;; translated from ./bv/svd1.c.vmt
;; original benchmark available at: https://es-static.fbk.eu/people/griggio/ic3ia/index.html
;; author: Alberto Griggio <griggio@fbk.eu>
(set-logic HORN)
(declare-fun state (Bool Bool Bool Bool Bool Bool (_ BitVec 32) (_ BitVec 32) (_ BitVec 32) (_ BitVec 32) (_ BitVec 32) (_ BitVec 32) (_ BitVec 32)) Bool)
(assert (forall ((|.PC.3| Bool) (|.PC.2| Bool) (|.PC.1| Bool) (|.PC.0| Bool) (|.PC.0.next| Bool) (|.PC.1.next| Bool) (|.PC.2.next| Bool) (|.PC.3.next| Bool) (|.PC.4.next| Bool) (|.PC.5.next| Bool) (|__RET__$main.next| (_ BitVec 32)) (|__RET__$main| (_ BitVec 32)) (|j__3$main.next| (_ BitVec 32)) (|j__3$main| (_ BitVec 32)) (|k__5$main.next| (_ BitVec 32)) (|k__5$main| (_ BitVec 32)) (|i__1$main| (_ BitVec 32)) (|i__1$main.next| (_ BitVec 32)) (|n$main.next| (_ BitVec 32)) (|n$main| (_ BitVec 32)) (|NONDET| (_ BitVec 32)) (|NONDET.next| (_ BitVec 32)) (|l__7$main| (_ BitVec 32)) (|l__7$main.next| (_ BitVec 32)) (|__NONDET_INLINE_INIT__8__7$main#0| (_ BitVec 32)) (|.PC.5| Bool) (|.PC.4| Bool)) (=> (let ((.def_24 (not .PC.5)))
(let ((.def_21 (not .PC.4)))
(let ((.def_18 (not .PC.3)))
(let ((.def_15 (not .PC.2)))
(let ((.def_12 (not .PC.1)))
(let ((.def_10 (not .PC.0)))
(let ((.def_13 (and .def_10 .def_12)))
(let ((.def_16 (and .def_13 .def_15)))
(let ((.def_19 (and .def_16 .def_18)))
(let ((.def_22 (and .def_19 .def_21)))
(let ((.def_25 (and .def_22 .def_24)))
.def_25))))))))))) (state |.PC.0| |.PC.1| |.PC.2| |.PC.3| |.PC.4| |.PC.5| |n$main| |j__3$main| |__RET__$main| |k__5$main| |NONDET| |i__1$main| |l__7$main|))))
(assert (forall ((|.PC.3| Bool) (|.PC.2| Bool) (|.PC.1| Bool) (|.PC.0| Bool) (|.PC.0.next| Bool) (|.PC.1.next| Bool) (|.PC.2.next| Bool) (|.PC.3.next| Bool) (|.PC.4.next| Bool) (|.PC.5.next| Bool) (|__RET__$main.next| (_ BitVec 32)) (|__RET__$main| (_ BitVec 32)) (|j__3$main.next| (_ BitVec 32)) (|j__3$main| (_ BitVec 32)) (|k__5$main.next| (_ BitVec 32)) (|k__5$main| (_ BitVec 32)) (|i__1$main| (_ BitVec 32)) (|i__1$main.next| (_ BitVec 32)) (|n$main.next| (_ BitVec 32)) (|n$main| (_ BitVec 32)) (|NONDET| (_ BitVec 32)) (|NONDET.next| (_ BitVec 32)) (|l__7$main| (_ BitVec 32)) (|l__7$main.next| (_ BitVec 32)) (|__NONDET_INLINE_INIT__8__7$main#0| (_ BitVec 32)) (|.PC.5| Bool) (|.PC.4| Bool)) (=> (and (state |.PC.0| |.PC.1| |.PC.2| |.PC.3| |.PC.4| |.PC.5| |n$main| |j__3$main| |__RET__$main| |k__5$main| |NONDET| |i__1$main| |l__7$main|) (let ((.def_10 (not .PC.0)))
(let ((.def_238 (and .def_10 .PC.1)))
(let ((.def_15 (not .PC.2)))
(let ((.def_239 (and .def_15 .def_238)))
(let ((.def_18 (not .PC.3)))
(let ((.def_695 (and .def_18 .def_239)))
(let ((.def_21 (not .PC.4)))
(let ((.def_700 (and .def_21 .def_695)))
(let ((.def_701 (and .PC.5 .def_700)))
(let ((.def_145 (not .PC.0.next)))
(let ((.def_184 (and .PC.1.next .def_145)))
(let ((.def_59 (not .PC.2.next)))
(let ((.def_185 (and .def_59 .def_184)))
(let ((.def_62 (not .PC.3.next)))
(let ((.def_232 (and .def_62 .def_185)))
(let ((.def_65 (not .PC.4.next)))
(let ((.def_233 (and .def_65 .def_232)))
(let ((.def_234 (and .PC.5.next .def_233)))
(let ((.def_702 (and .def_234 .def_701)))
(let ((.def_696 (and .PC.4 .def_695)))
(let ((.def_24 (not .PC.5)))
(let ((.def_697 (and .def_24 .def_696)))
(let ((.def_45 (= __RET__$main __RET__$main.next)))
(let ((.def_41 (= j__3$main j__3$main.next)))
(let ((.def_226 (and .def_41 .def_45)))
(let ((.def_49 (= k__5$main k__5$main.next)))
(let ((.def_227 (and .def_49 .def_226)))
(let ((.def_87 (= i__1$main.next i__1$main)))
(let ((.def_228 (and .def_87 .def_227)))
(let ((.def_52 (= n$main n$main.next)))
(let ((.def_229 (and .def_52 .def_228)))
(let ((.def_90 (= NONDET.next NONDET)))
(let ((.def_230 (and .def_90 .def_229)))
(let ((.def_92 (= l__7$main.next l__7$main)))
(let ((.def_231 (and .def_92 .def_230)))
(let ((.def_235 (and .def_231 .def_234)))
(let ((.def_698 (and .def_235 .def_697)))
(let ((.def_152 (and .PC.0 .PC.1)))
(let ((.def_222 (and .def_15 .def_152)))
(let ((.def_395 (and .def_18 .def_222)))
(let ((.def_691 (and .PC.4 .def_395)))
(let ((.def_692 (and .def_24 .def_691)))
(let ((.def_693 (and .def_235 .def_692)))
(let ((.def_12 (not .PC.1)))
(let ((.def_13 (and .def_10 .def_12)))
(let ((.def_378 (and .def_13 .PC.2)))
(let ((.def_485 (and .def_18 .def_378)))
(let ((.def_687 (and .PC.4 .def_485)))
(let ((.def_688 (and .def_24 .def_687)))
(let ((.def_689 (and .def_235 .def_688)))
(let ((.def_100 (and .PC.0 .def_12)))
(let ((.def_255 (and .PC.2 .def_100)))
(let ((.def_256 (and .def_18 .def_255)))
(let ((.def_683 (and .PC.4 .def_256)))
(let ((.def_684 (and .def_24 .def_683)))
(let ((.def_685 (and .def_235 .def_684)))
(let ((.def_281 (and .PC.2 .def_238)))
(let ((.def_282 (and .def_18 .def_281)))
(let ((.def_679 (and .PC.4 .def_282)))
(let ((.def_680 (and .def_24 .def_679)))
(let ((.def_681 (and .def_235 .def_680)))
(let ((.def_153 (and .PC.2 .def_152)))
(let ((.def_154 (and .def_18 .def_153)))
(let ((.def_675 (and .PC.4 .def_154)))
(let ((.def_676 (and .def_24 .def_675)))
(let ((.def_677 (and .def_235 .def_676)))
(let ((.def_521 (bvslt k__5$main (_ bv1 32))))
(let ((.def_535 (not .def_521)))
(let ((.def_503 (bvslt n$main k__5$main)))
(let ((.def_520 (not .def_503)))
(let ((.def_536 (and .def_520 .def_535)))
(let ((.def_550 (and .def_520 .def_536)))
(let ((.def_292 (bvslt j__3$main (_ bv1 32))))
(let ((.def_307 (not .def_292)))
(let ((.def_564 (and .def_307 .def_550)))
(let ((.def_272 (bvslt n$main j__3$main)))
(let ((.def_291 (not .def_272)))
(let ((.def_578 (and .def_291 .def_564)))
(let ((.def_78 (bvslt i__1$main (_ bv1 32))))
(let ((.def_79 (not .def_78)))
(let ((.def_650 (and .def_79 .def_578)))
(let ((.def_159 (bvslt n$main i__1$main)))
(let ((.def_174 (not .def_159)))
(let ((.def_664 (and .def_174 .def_650)))
(let ((.def_576 (bvadd (_ bv1 32) k__5$main)))
(let ((.def_577 (= k__5$main.next .def_576)))
(let ((.def_665 (and .def_577 .def_664)))
(let ((.def_666 (and .def_41 .def_665)))
(let ((.def_667 (and .def_45 .def_666)))
(let ((.def_668 (and .def_87 .def_667)))
(let ((.def_669 (and .def_52 .def_668)))
(let ((.def_670 (and .def_90 .def_669)))
(let ((.def_671 (and .def_92 .def_670)))
(let ((.def_55 (not .PC.1.next)))
(let ((.def_57 (and .def_55 .PC.0.next)))
(let ((.def_60 (and .def_57 .def_59)))
(let ((.def_63 (and .def_60 .def_62)))
(let ((.def_511 (and .def_63 .PC.4.next)))
(let ((.def_68 (not .PC.5.next)))
(let ((.def_512 (and .def_68 .def_511)))
(let ((.def_672 (and .def_512 .def_671)))
(let ((.def_101 (and .def_15 .def_100)))
(let ((.def_102 (and .def_18 .def_101)))
(let ((.def_613 (and .PC.4 .def_102)))
(let ((.def_614 (and .def_24 .def_613)))
(let ((.def_673 (and .def_614 .def_672)))
(let ((.def_94 (and .PC.1.next .PC.0.next)))
(let ((.def_131 (and .PC.2.next .def_94)))
(let ((.def_132 (and .def_62 .def_131)))
(let ((.def_659 (and .PC.4.next .def_132)))
(let ((.def_660 (and .def_68 .def_659)))
(let ((.def_651 (and .def_159 .def_650)))
(let ((.def_652 (and .def_41 .def_651)))
(let ((.def_653 (and .def_45 .def_652)))
(let ((.def_654 (and .def_49 .def_653)))
(let ((.def_655 (and .def_87 .def_654)))
(let ((.def_656 (and .def_52 .def_655)))
(let ((.def_657 (and .def_90 .def_656)))
(let ((.def_658 (and .def_92 .def_657)))
(let ((.def_661 (and .def_658 .def_660)))
(let ((.def_662 (and .def_614 .def_661)))
(let ((.def_265 (and .PC.2.next .def_184)))
(let ((.def_266 (and .def_62 .def_265)))
(let ((.def_645 (and .PC.4.next .def_266)))
(let ((.def_646 (and .def_68 .def_645)))
(let ((.def_637 (and .def_78 .def_578)))
(let ((.def_638 (and .def_41 .def_637)))
(let ((.def_639 (and .def_45 .def_638)))
(let ((.def_640 (and .def_49 .def_639)))
(let ((.def_641 (and .def_87 .def_640)))
(let ((.def_642 (and .def_52 .def_641)))
(let ((.def_643 (and .def_90 .def_642)))
(let ((.def_644 (and .def_92 .def_643)))
(let ((.def_647 (and .def_644 .def_646)))
(let ((.def_648 (and .def_614 .def_647)))
(let ((.def_115 (and .def_57 .PC.2.next)))
(let ((.def_116 (and .def_62 .def_115)))
(let ((.def_632 (and .PC.4.next .def_116)))
(let ((.def_633 (and .def_68 .def_632)))
(let ((.def_565 (and .def_272 .def_564)))
(let ((.def_566 (and .def_41 .def_565)))
(let ((.def_567 (and .def_45 .def_566)))
(let ((.def_568 (and .def_49 .def_567)))
(let ((.def_569 (and .def_87 .def_568)))
(let ((.def_570 (and .def_52 .def_569)))
(let ((.def_571 (and .def_90 .def_570)))
(let ((.def_572 (and .def_92 .def_571)))
(let ((.def_634 (and .def_572 .def_633)))
(let ((.def_635 (and .def_614 .def_634)))
(let ((.def_146 (and .def_55 .def_145)))
(let ((.def_287 (and .PC.2.next .def_146)))
(let ((.def_391 (and .def_62 .def_287)))
(let ((.def_627 (and .PC.4.next .def_391)))
(let ((.def_628 (and .def_68 .def_627)))
(let ((.def_551 (and .def_292 .def_550)))
(let ((.def_552 (and .def_41 .def_551)))
(let ((.def_553 (and .def_45 .def_552)))
(let ((.def_554 (and .def_49 .def_553)))
(let ((.def_555 (and .def_87 .def_554)))
(let ((.def_556 (and .def_52 .def_555)))
(let ((.def_557 (and .def_90 .def_556)))
(let ((.def_558 (and .def_92 .def_557)))
(let ((.def_629 (and .def_558 .def_628)))
(let ((.def_630 (and .def_614 .def_629)))
(let ((.def_95 (and .def_59 .def_94)))
(let ((.def_96 (and .def_62 .def_95)))
(let ((.def_622 (and .PC.4.next .def_96)))
(let ((.def_623 (and .def_68 .def_622)))
(let ((.def_537 (and .def_503 .def_536)))
(let ((.def_538 (and .def_41 .def_537)))
(let ((.def_539 (and .def_45 .def_538)))
(let ((.def_540 (and .def_49 .def_539)))
(let ((.def_541 (and .def_87 .def_540)))
(let ((.def_542 (and .def_52 .def_541)))
(let ((.def_543 (and .def_90 .def_542)))
(let ((.def_544 (and .def_92 .def_543)))
(let ((.def_624 (and .def_544 .def_623)))
(let ((.def_625 (and .def_614 .def_624)))
(let ((.def_617 (and .PC.4.next .def_232)))
(let ((.def_618 (and .def_68 .def_617)))
(let ((.def_522 (and .def_520 .def_521)))
(let ((.def_523 (and .def_41 .def_522)))
(let ((.def_524 (and .def_45 .def_523)))
(let ((.def_525 (and .def_49 .def_524)))
(let ((.def_526 (and .def_87 .def_525)))
(let ((.def_527 (and .def_52 .def_526)))
(let ((.def_528 (and .def_90 .def_527)))
(let ((.def_529 (and .def_92 .def_528)))
(let ((.def_619 (and .def_529 .def_618)))
(let ((.def_620 (and .def_614 .def_619)))
(let ((.def_351 (bvadd (_ bv1 32) j__3$main)))
(let ((.def_352 (= j__3$main.next .def_351)))
(let ((.def_605 (and .def_352 .def_503)))
(let ((.def_606 (and .def_45 .def_605)))
(let ((.def_607 (and .def_49 .def_606)))
(let ((.def_608 (and .def_87 .def_607)))
(let ((.def_609 (and .def_52 .def_608)))
(let ((.def_610 (and .def_90 .def_609)))
(let ((.def_611 (and .def_92 .def_610)))
(let ((.def_392 (and .def_65 .def_391)))
(let ((.def_393 (and .def_68 .def_392)))
(let ((.def_612 (and .def_393 .def_611)))
(let ((.def_615 (and .def_612 .def_614)))
(let ((.def_16 (and .def_13 .def_15)))
(let ((.def_250 (and .def_16 .PC.3)))
(let ((.def_601 (and .PC.4 .def_250)))
(let ((.def_602 (and .def_24 .def_601)))
(let ((.def_603 (and .def_235 .def_602)))
(let ((.def_245 (and .PC.3 .def_101)))
(let ((.def_597 (and .PC.4 .def_245)))
(let ((.def_598 (and .def_24 .def_597)))
(let ((.def_599 (and .def_235 .def_598)))
(let ((.def_240 (and .PC.3 .def_239)))
(let ((.def_593 (and .PC.4 .def_240)))
(let ((.def_594 (and .def_24 .def_593)))
(let ((.def_595 (and .def_235 .def_594)))
(let ((.def_223 (and .PC.3 .def_222)))
(let ((.def_589 (and .PC.4 .def_223)))
(let ((.def_590 (and .def_24 .def_589)))
(let ((.def_591 (and .def_235 .def_590)))
(let ((.def_579 (and .def_577 .def_578)))
(let ((.def_580 (and .def_41 .def_579)))
(let ((.def_581 (and .def_45 .def_580)))
(let ((.def_582 (and .def_87 .def_581)))
(let ((.def_583 (and .def_52 .def_582)))
(let ((.def_584 (and .def_90 .def_583)))
(let ((.def_585 (and .def_92 .def_584)))
(let ((.def_147 (and .def_59 .def_146)))
(let ((.def_429 (and .def_62 .def_147)))
(let ((.def_498 (and .PC.4.next .def_429)))
(let ((.def_499 (and .def_68 .def_498)))
(let ((.def_586 (and .def_499 .def_585)))
(let ((.def_19 (and .def_16 .def_18)))
(let ((.def_514 (and .def_19 .PC.4)))
(let ((.def_515 (and .def_24 .def_514)))
(let ((.def_587 (and .def_515 .def_586)))
(let ((.def_201 (and .PC.3.next .def_95)))
(let ((.def_562 (and .PC.4.next .def_201)))
(let ((.def_563 (and .def_68 .def_562)))
(let ((.def_573 (and .def_563 .def_572)))
(let ((.def_574 (and .def_515 .def_573)))
(let ((.def_186 (and .PC.3.next .def_185)))
(let ((.def_548 (and .PC.4.next .def_186)))
(let ((.def_549 (and .def_68 .def_548)))
(let ((.def_559 (and .def_549 .def_558)))
(let ((.def_560 (and .def_515 .def_559)))
(let ((.def_168 (and .def_60 .PC.3.next)))
(let ((.def_533 (and .PC.4.next .def_168)))
(let ((.def_534 (and .def_68 .def_533)))
(let ((.def_545 (and .def_534 .def_544)))
(let ((.def_546 (and .def_515 .def_545)))
(let ((.def_148 (and .PC.3.next .def_147)))
(let ((.def_518 (and .PC.4.next .def_148)))
(let ((.def_519 (and .def_68 .def_518)))
(let ((.def_530 (and .def_519 .def_529)))
(let ((.def_531 (and .def_515 .def_530)))
(let ((.def_490 (= k__5$main.next l__7$main)))
(let ((.def_504 (and .def_490 .def_503)))
(let ((.def_505 (and .def_41 .def_504)))
(let ((.def_506 (and .def_45 .def_505)))
(let ((.def_507 (and .def_87 .def_506)))
(let ((.def_508 (and .def_52 .def_507)))
(let ((.def_509 (and .def_90 .def_508)))
(let ((.def_510 (and .def_92 .def_509)))
(let ((.def_513 (and .def_510 .def_512)))
(let ((.def_516 (and .def_513 .def_515)))
(let ((.def_491 (and .def_291 .def_490)))
(let ((.def_492 (and .def_41 .def_491)))
(let ((.def_493 (and .def_45 .def_492)))
(let ((.def_494 (and .def_87 .def_493)))
(let ((.def_495 (and .def_52 .def_494)))
(let ((.def_496 (and .def_90 .def_495)))
(let ((.def_497 (and .def_92 .def_496)))
(let ((.def_500 (and .def_497 .def_499)))
(let ((.def_486 (and .def_21 .def_485)))
(let ((.def_487 (and .def_24 .def_486)))
(let ((.def_501 (and .def_487 .def_500)))
(let ((.def_273 (and .def_41 .def_272)))
(let ((.def_274 (and .def_45 .def_273)))
(let ((.def_275 (and .def_49 .def_274)))
(let ((.def_276 (and .def_87 .def_275)))
(let ((.def_277 (and .def_52 .def_276)))
(let ((.def_278 (and .def_90 .def_277)))
(let ((.def_279 (and .def_92 .def_278)))
(let ((.def_117 (and .def_65 .def_116)))
(let ((.def_118 (and .def_68 .def_117)))
(let ((.def_484 (and .def_118 .def_279)))
(let ((.def_488 (and .def_484 .def_487)))
(let ((.def_379 (and .PC.3 .def_378)))
(let ((.def_480 (and .PC.4 .def_379)))
(let ((.def_481 (and .def_24 .def_480)))
(let ((.def_482 (and .def_235 .def_481)))
(let ((.def_373 (and .PC.3 .def_255)))
(let ((.def_476 (and .PC.4 .def_373)))
(let ((.def_477 (and .def_24 .def_476)))
(let ((.def_478 (and .def_235 .def_477)))
(let ((.def_368 (and .PC.3 .def_281)))
(let ((.def_472 (and .PC.4 .def_368)))
(let ((.def_473 (and .def_24 .def_472)))
(let ((.def_474 (and .def_235 .def_473)))
(let ((.def_363 (and .PC.3 .def_153)))
(let ((.def_468 (and .PC.4 .def_363)))
(let ((.def_469 (and .def_24 .def_468)))
(let ((.def_470 (and .def_235 .def_469)))
(let ((.def_22 (and .def_19 .def_21)))
(let ((.def_465 (and .def_22 .PC.5)))
(let ((.def_466 (and .def_235 .def_465)))
(let ((.def_103 (and .def_21 .def_102)))
(let ((.def_462 (and .PC.5 .def_103)))
(let ((.def_463 (and .def_235 .def_462)))
(let ((.def_437 (bvslt n$main l__7$main)))
(let ((.def_450 (not .def_437)))
(let ((.def_420 (bvslt l__7$main (_ bv1 32))))
(let ((.def_435 (not .def_420)))
(let ((.def_308 (and .def_291 .def_307)))
(let ((.def_323 (and .def_291 .def_308)))
(let ((.def_338 (and .def_79 .def_323)))
(let ((.def_350 (and .def_174 .def_338)))
(let ((.def_436 (and .def_350 .def_435)))
(let ((.def_451 (and .def_436 .def_450)))
(let ((.def_452 (and .def_352 .def_451)))
(let ((.def_453 (and .def_45 .def_452)))
(let ((.def_454 (and .def_49 .def_453)))
(let ((.def_455 (and .def_87 .def_454)))
(let ((.def_456 (and .def_52 .def_455)))
(let ((.def_457 (and .def_90 .def_456)))
(let ((.def_458 (and .def_92 .def_457)))
(let ((.def_97 (and .def_65 .def_96)))
(let ((.def_98 (and .def_68 .def_97)))
(let ((.def_459 (and .def_98 .def_458)))
(let ((.def_396 (and .def_21 .def_395)))
(let ((.def_397 (and .def_24 .def_396)))
(let ((.def_460 (and .def_397 .def_459)))
(let ((.def_66 (and .def_63 .def_65)))
(let ((.def_446 (and .def_66 .PC.5.next)))
(let ((.def_438 (and .def_436 .def_437)))
(let ((.def_439 (and .def_41 .def_438)))
(let ((.def_440 (and .def_45 .def_439)))
(let ((.def_441 (and .def_49 .def_440)))
(let ((.def_442 (and .def_87 .def_441)))
(let ((.def_443 (and .def_52 .def_442)))
(let ((.def_444 (and .def_90 .def_443)))
(let ((.def_445 (and .def_92 .def_444)))
(let ((.def_447 (and .def_445 .def_446)))
(let ((.def_448 (and .def_397 .def_447)))
(let ((.def_430 (and .def_65 .def_429)))
(let ((.def_431 (and .PC.5.next .def_430)))
(let ((.def_421 (and .def_350 .def_420)))
(let ((.def_422 (and .def_41 .def_421)))
(let ((.def_423 (and .def_45 .def_422)))
(let ((.def_424 (and .def_49 .def_423)))
(let ((.def_425 (and .def_87 .def_424)))
(let ((.def_426 (and .def_52 .def_425)))
(let ((.def_427 (and .def_90 .def_426)))
(let ((.def_428 (and .def_92 .def_427)))
(let ((.def_432 (and .def_428 .def_431)))
(let ((.def_433 (and .def_397 .def_432)))
(let ((.def_335 (and .PC.3.next .def_131)))
(let ((.def_415 (and .PC.4.next .def_335)))
(let ((.def_416 (and .def_68 .def_415)))
(let ((.def_339 (and .def_159 .def_338)))
(let ((.def_340 (and .def_41 .def_339)))
(let ((.def_341 (and .def_45 .def_340)))
(let ((.def_342 (and .def_49 .def_341)))
(let ((.def_343 (and .def_87 .def_342)))
(let ((.def_344 (and .def_52 .def_343)))
(let ((.def_345 (and .def_90 .def_344)))
(let ((.def_346 (and .def_92 .def_345)))
(let ((.def_417 (and .def_346 .def_416)))
(let ((.def_418 (and .def_397 .def_417)))
(let ((.def_320 (and .PC.3.next .def_265)))
(let ((.def_410 (and .PC.4.next .def_320)))
(let ((.def_411 (and .def_68 .def_410)))
(let ((.def_324 (and .def_78 .def_323)))
(let ((.def_325 (and .def_41 .def_324)))
(let ((.def_326 (and .def_45 .def_325)))
(let ((.def_327 (and .def_49 .def_326)))
(let ((.def_328 (and .def_87 .def_327)))
(let ((.def_329 (and .def_52 .def_328)))
(let ((.def_330 (and .def_90 .def_329)))
(let ((.def_331 (and .def_92 .def_330)))
(let ((.def_412 (and .def_331 .def_411)))
(let ((.def_413 (and .def_397 .def_412)))
(let ((.def_304 (and .PC.3.next .def_115)))
(let ((.def_405 (and .PC.4.next .def_304)))
(let ((.def_406 (and .def_68 .def_405)))
(let ((.def_309 (and .def_272 .def_308)))
(let ((.def_310 (and .def_41 .def_309)))
(let ((.def_311 (and .def_45 .def_310)))
(let ((.def_312 (and .def_49 .def_311)))
(let ((.def_313 (and .def_87 .def_312)))
(let ((.def_314 (and .def_52 .def_313)))
(let ((.def_315 (and .def_90 .def_314)))
(let ((.def_316 (and .def_92 .def_315)))
(let ((.def_407 (and .def_316 .def_406)))
(let ((.def_408 (and .def_397 .def_407)))
(let ((.def_288 (and .PC.3.next .def_287)))
(let ((.def_400 (and .PC.4.next .def_288)))
(let ((.def_401 (and .def_68 .def_400)))
(let ((.def_293 (and .def_291 .def_292)))
(let ((.def_294 (and .def_41 .def_293)))
(let ((.def_295 (and .def_45 .def_294)))
(let ((.def_296 (and .def_49 .def_295)))
(let ((.def_297 (and .def_87 .def_296)))
(let ((.def_298 (and .def_52 .def_297)))
(let ((.def_299 (and .def_90 .def_298)))
(let ((.def_300 (and .def_92 .def_299)))
(let ((.def_402 (and .def_300 .def_401)))
(let ((.def_403 (and .def_397 .def_402)))
(let ((.def_83 (= j__3$main.next l__7$main)))
(let ((.def_384 (and .def_83 .def_272)))
(let ((.def_385 (and .def_45 .def_384)))
(let ((.def_386 (and .def_49 .def_385)))
(let ((.def_387 (and .def_87 .def_386)))
(let ((.def_388 (and .def_52 .def_387)))
(let ((.def_389 (and .def_90 .def_388)))
(let ((.def_390 (and .def_92 .def_389)))
(let ((.def_394 (and .def_390 .def_393)))
(let ((.def_398 (and .def_394 .def_397)))
(let ((.def_380 (and .def_21 .def_379)))
(let ((.def_381 (and .def_24 .def_380)))
(let ((.def_382 (and .def_235 .def_381)))
(let ((.def_374 (and .def_21 .def_373)))
(let ((.def_375 (and .def_24 .def_374)))
(let ((.def_376 (and .def_235 .def_375)))
(let ((.def_369 (and .def_21 .def_368)))
(let ((.def_370 (and .def_24 .def_369)))
(let ((.def_371 (and .def_235 .def_370)))
(let ((.def_364 (and .def_21 .def_363)))
(let ((.def_365 (and .def_24 .def_364)))
(let ((.def_366 (and .def_235 .def_365)))
(let ((.def_353 (and .def_350 .def_352)))
(let ((.def_354 (and .def_45 .def_353)))
(let ((.def_355 (and .def_49 .def_354)))
(let ((.def_356 (and .def_87 .def_355)))
(let ((.def_357 (and .def_52 .def_356)))
(let ((.def_358 (and .def_90 .def_357)))
(let ((.def_359 (and .def_92 .def_358)))
(let ((.def_267 (and .def_65 .def_266)))
(let ((.def_268 (and .def_68 .def_267)))
(let ((.def_360 (and .def_268 .def_359)))
(let ((.def_283 (and .def_21 .def_282)))
(let ((.def_284 (and .def_24 .def_283)))
(let ((.def_361 (and .def_284 .def_360)))
(let ((.def_336 (and .def_65 .def_335)))
(let ((.def_337 (and .def_68 .def_336)))
(let ((.def_347 (and .def_337 .def_346)))
(let ((.def_348 (and .def_284 .def_347)))
(let ((.def_321 (and .def_65 .def_320)))
(let ((.def_322 (and .def_68 .def_321)))
(let ((.def_332 (and .def_322 .def_331)))
(let ((.def_333 (and .def_284 .def_332)))
(let ((.def_305 (and .def_65 .def_304)))
(let ((.def_306 (and .def_68 .def_305)))
(let ((.def_317 (and .def_306 .def_316)))
(let ((.def_318 (and .def_284 .def_317)))
(let ((.def_289 (and .def_65 .def_288)))
(let ((.def_290 (and .def_68 .def_289)))
(let ((.def_301 (and .def_290 .def_300)))
(let ((.def_302 (and .def_284 .def_301)))
(let ((.def_133 (and .def_65 .def_132)))
(let ((.def_134 (and .def_68 .def_133)))
(let ((.def_280 (and .def_134 .def_279)))
(let ((.def_285 (and .def_280 .def_284)))
(let ((.def_259 (and .def_45 .def_83)))
(let ((.def_260 (and .def_49 .def_259)))
(let ((.def_261 (and .def_87 .def_260)))
(let ((.def_262 (and .def_52 .def_261)))
(let ((.def_263 (and .def_90 .def_262)))
(let ((.def_264 (and .def_92 .def_263)))
(let ((.def_269 (and .def_264 .def_268)))
(let ((.def_257 (and .def_21 .def_256)))
(let ((.def_258 (and .def_24 .def_257)))
(let ((.def_270 (and .def_258 .def_269)))
(let ((.def_251 (and .def_21 .def_250)))
(let ((.def_252 (and .def_24 .def_251)))
(let ((.def_253 (and .def_235 .def_252)))
(let ((.def_246 (and .def_21 .def_245)))
(let ((.def_247 (and .def_24 .def_246)))
(let ((.def_248 (and .def_235 .def_247)))
(let ((.def_241 (and .def_21 .def_240)))
(let ((.def_242 (and .def_24 .def_241)))
(let ((.def_243 (and .def_235 .def_242)))
(let ((.def_224 (and .def_21 .def_223)))
(let ((.def_225 (and .def_24 .def_224)))
(let ((.def_236 (and .def_225 .def_235)))
(let ((.def_211 (bvadd (_ bv4294967295 32) i__1$main)))
(let ((.def_212 (= i__1$main.next .def_211)))
(let ((.def_175 (and .def_79 .def_174)))
(let ((.def_192 (and .def_79 .def_175)))
(let ((.def_208 (and .def_174 .def_192)))
(let ((.def_207 (= l__7$main.next i__1$main)))
(let ((.def_209 (and .def_207 .def_208)))
(let ((.def_213 (and .def_209 .def_212)))
(let ((.def_214 (and .def_41 .def_213)))
(let ((.def_215 (and .def_45 .def_214)))
(let ((.def_216 (and .def_49 .def_215)))
(let ((.def_217 (and .def_52 .def_216)))
(let ((.def_218 (and .def_90 .def_217)))
(let ((.def_69 (and .def_66 .def_68)))
(let ((.def_219 (and .def_69 .def_218)))
(let ((.def_155 (and .def_21 .def_154)))
(let ((.def_156 (and .def_24 .def_155)))
(let ((.def_220 (and .def_156 .def_219)))
(let ((.def_202 (and .def_65 .def_201)))
(let ((.def_203 (and .def_68 .def_202)))
(let ((.def_193 (and .def_159 .def_192)))
(let ((.def_194 (and .def_41 .def_193)))
(let ((.def_195 (and .def_45 .def_194)))
(let ((.def_196 (and .def_49 .def_195)))
(let ((.def_197 (and .def_87 .def_196)))
(let ((.def_198 (and .def_52 .def_197)))
(let ((.def_199 (and .def_90 .def_198)))
(let ((.def_200 (and .def_92 .def_199)))
(let ((.def_204 (and .def_200 .def_203)))
(let ((.def_205 (and .def_156 .def_204)))
(let ((.def_187 (and .def_65 .def_186)))
(let ((.def_188 (and .def_68 .def_187)))
(let ((.def_176 (and .def_78 .def_175)))
(let ((.def_177 (and .def_41 .def_176)))
(let ((.def_178 (and .def_45 .def_177)))
(let ((.def_179 (and .def_49 .def_178)))
(let ((.def_180 (and .def_87 .def_179)))
(let ((.def_181 (and .def_52 .def_180)))
(let ((.def_182 (and .def_90 .def_181)))
(let ((.def_183 (and .def_92 .def_182)))
(let ((.def_189 (and .def_183 .def_188)))
(let ((.def_190 (and .def_156 .def_189)))
(let ((.def_169 (and .def_65 .def_168)))
(let ((.def_170 (and .def_68 .def_169)))
(let ((.def_160 (and .def_79 .def_159)))
(let ((.def_161 (and .def_41 .def_160)))
(let ((.def_162 (and .def_45 .def_161)))
(let ((.def_163 (and .def_49 .def_162)))
(let ((.def_164 (and .def_87 .def_163)))
(let ((.def_165 (and .def_52 .def_164)))
(let ((.def_166 (and .def_90 .def_165)))
(let ((.def_167 (and .def_92 .def_166)))
(let ((.def_171 (and .def_167 .def_170)))
(let ((.def_172 (and .def_156 .def_171)))
(let ((.def_149 (and .def_65 .def_148)))
(let ((.def_150 (and .def_68 .def_149)))
(let ((.def_138 (and .def_41 .def_78)))
(let ((.def_139 (and .def_45 .def_138)))
(let ((.def_140 (and .def_49 .def_139)))
(let ((.def_141 (and .def_87 .def_140)))
(let ((.def_142 (and .def_52 .def_141)))
(let ((.def_143 (and .def_90 .def_142)))
(let ((.def_144 (and .def_92 .def_143)))
(let ((.def_151 (and .def_144 .def_150)))
(let ((.def_157 (and .def_151 .def_156)))
(let ((.def_76 (bvslt i__1$main n$main)))
(let ((.def_122 (not .def_76)))
(let ((.def_123 (and .def_79 .def_122)))
(let ((.def_124 (and .def_41 .def_123)))
(let ((.def_125 (and .def_45 .def_124)))
(let ((.def_126 (and .def_49 .def_125)))
(let ((.def_127 (and .def_87 .def_126)))
(let ((.def_128 (and .def_52 .def_127)))
(let ((.def_129 (and .def_90 .def_128)))
(let ((.def_130 (and .def_92 .def_129)))
(let ((.def_135 (and .def_130 .def_134)))
(let ((.def_104 (and .def_24 .def_103)))
(let ((.def_136 (and .def_104 .def_135)))
(let ((.def_80 (and .def_76 .def_79)))
(let ((.def_73 (= NONDET (_ bv0 32))))
(let ((.def_107 (and .def_73 .def_80)))
(let ((.def_108 (and .def_41 .def_107)))
(let ((.def_109 (and .def_45 .def_108)))
(let ((.def_110 (and .def_49 .def_109)))
(let ((.def_111 (and .def_87 .def_110)))
(let ((.def_112 (and .def_52 .def_111)))
(let ((.def_113 (and .def_90 .def_112)))
(let ((.def_114 (and .def_92 .def_113)))
(let ((.def_119 (and .def_114 .def_118)))
(let ((.def_120 (and .def_104 .def_119)))
(let ((.def_74 (not .def_73)))
(let ((.def_81 (and .def_74 .def_80)))
(let ((.def_84 (and .def_81 .def_83)))
(let ((.def_85 (and .def_45 .def_84)))
(let ((.def_86 (and .def_49 .def_85)))
(let ((.def_88 (and .def_86 .def_87)))
(let ((.def_89 (and .def_52 .def_88)))
(let ((.def_91 (and .def_89 .def_90)))
(let ((.def_93 (and .def_91 .def_92)))
(let ((.def_99 (and .def_93 .def_98)))
(let ((.def_105 (and .def_99 .def_104)))
(let ((.def_36 (bvslt (_ bv0 32) l__7$main.next)))
(let ((.def_34 (= NONDET.next (_ bv0 32))))
(let ((.def_31 (= l__7$main.next |__NONDET_INLINE_INIT__8__7$main#0|)))
(let ((.def_35 (and .def_31 .def_34)))
(let ((.def_37 (and .def_35 .def_36)))
(let ((.def_28 (= n$main i__1$main.next)))
(let ((.def_38 (and .def_28 .def_37)))
(let ((.def_42 (and .def_38 .def_41)))
(let ((.def_46 (and .def_42 .def_45)))
(let ((.def_50 (and .def_46 .def_49)))
(let ((.def_53 (and .def_50 .def_52)))
(let ((.def_70 (and .def_53 .def_69)))
(let ((.def_25 (and .def_22 .def_24)))
(let ((.def_71 (and .def_25 .def_70)))
(let ((.def_106 (or .def_71 .def_105)))
(let ((.def_121 (or .def_106 .def_120)))
(let ((.def_137 (or .def_121 .def_136)))
(let ((.def_158 (or .def_137 .def_157)))
(let ((.def_173 (or .def_158 .def_172)))
(let ((.def_191 (or .def_173 .def_190)))
(let ((.def_206 (or .def_191 .def_205)))
(let ((.def_221 (or .def_206 .def_220)))
(let ((.def_237 (or .def_221 .def_236)))
(let ((.def_244 (or .def_237 .def_243)))
(let ((.def_249 (or .def_244 .def_248)))
(let ((.def_254 (or .def_249 .def_253)))
(let ((.def_271 (or .def_254 .def_270)))
(let ((.def_286 (or .def_271 .def_285)))
(let ((.def_303 (or .def_286 .def_302)))
(let ((.def_319 (or .def_303 .def_318)))
(let ((.def_334 (or .def_319 .def_333)))
(let ((.def_349 (or .def_334 .def_348)))
(let ((.def_362 (or .def_349 .def_361)))
(let ((.def_367 (or .def_362 .def_366)))
(let ((.def_372 (or .def_367 .def_371)))
(let ((.def_377 (or .def_372 .def_376)))
(let ((.def_383 (or .def_377 .def_382)))
(let ((.def_399 (or .def_383 .def_398)))
(let ((.def_404 (or .def_399 .def_403)))
(let ((.def_409 (or .def_404 .def_408)))
(let ((.def_414 (or .def_409 .def_413)))
(let ((.def_419 (or .def_414 .def_418)))
(let ((.def_434 (or .def_419 .def_433)))
(let ((.def_449 (or .def_434 .def_448)))
(let ((.def_461 (or .def_449 .def_460)))
(let ((.def_464 (or .def_461 .def_463)))
(let ((.def_467 (or .def_464 .def_466)))
(let ((.def_471 (or .def_467 .def_470)))
(let ((.def_475 (or .def_471 .def_474)))
(let ((.def_479 (or .def_475 .def_478)))
(let ((.def_483 (or .def_479 .def_482)))
(let ((.def_489 (or .def_483 .def_488)))
(let ((.def_502 (or .def_489 .def_501)))
(let ((.def_517 (or .def_502 .def_516)))
(let ((.def_532 (or .def_517 .def_531)))
(let ((.def_547 (or .def_532 .def_546)))
(let ((.def_561 (or .def_547 .def_560)))
(let ((.def_575 (or .def_561 .def_574)))
(let ((.def_588 (or .def_575 .def_587)))
(let ((.def_592 (or .def_588 .def_591)))
(let ((.def_596 (or .def_592 .def_595)))
(let ((.def_600 (or .def_596 .def_599)))
(let ((.def_604 (or .def_600 .def_603)))
(let ((.def_616 (or .def_604 .def_615)))
(let ((.def_621 (or .def_616 .def_620)))
(let ((.def_626 (or .def_621 .def_625)))
(let ((.def_631 (or .def_626 .def_630)))
(let ((.def_636 (or .def_631 .def_635)))
(let ((.def_649 (or .def_636 .def_648)))
(let ((.def_663 (or .def_649 .def_662)))
(let ((.def_674 (or .def_663 .def_673)))
(let ((.def_678 (or .def_674 .def_677)))
(let ((.def_682 (or .def_678 .def_681)))
(let ((.def_686 (or .def_682 .def_685)))
(let ((.def_690 (or .def_686 .def_689)))
(let ((.def_694 (or .def_690 .def_693)))
(let ((.def_699 (or .def_694 .def_698)))
(let ((.def_703 (or .def_699 .def_702)))
.def_703)))))))))))))))))))))))))))))))))))))))))))))))))))))))))))))))))))))))))))))))))))))))))))))))))))))))))))))))))))))))))))))))))))))))))))))))))))))))))))))))))))))))))))))))))))))))))))))))))))))))))))))))))))))))))))))))))))))))))))))))))))))))))))))))))))))))))))))))))))))))))))))))))))))))))))))))))))))))))))))))))))))))))))))))))))))))))))))))))))))))))))))))))))))))))))))))))))))))))))))))))))))))))))))))))))))))))))))))))))))))))))))))))))))))))))))))))))))))))))))))))))))))))))))))))))))))))))))))))))))))))))))))))))))))))))))))))))))))))))))))))))))))))))))))))))))))))))))))))))))))))))))))))))))))))))))))))))))))))))))))))))))))))))))))))))))))))) (state |.PC.0.next| |.PC.1.next| |.PC.2.next| |.PC.3.next| |.PC.4.next| |.PC.5.next| |n$main.next| |j__3$main.next| |__RET__$main.next| |k__5$main.next| |NONDET.next| |i__1$main.next| |l__7$main.next|))))
(assert (forall ((|.PC.3| Bool) (|.PC.2| Bool) (|.PC.1| Bool) (|.PC.0| Bool) (|.PC.0.next| Bool) (|.PC.1.next| Bool) (|.PC.2.next| Bool) (|.PC.3.next| Bool) (|.PC.4.next| Bool) (|.PC.5.next| Bool) (|__RET__$main.next| (_ BitVec 32)) (|__RET__$main| (_ BitVec 32)) (|j__3$main.next| (_ BitVec 32)) (|j__3$main| (_ BitVec 32)) (|k__5$main.next| (_ BitVec 32)) (|k__5$main| (_ BitVec 32)) (|i__1$main| (_ BitVec 32)) (|i__1$main.next| (_ BitVec 32)) (|n$main.next| (_ BitVec 32)) (|n$main| (_ BitVec 32)) (|NONDET| (_ BitVec 32)) (|NONDET.next| (_ BitVec 32)) (|l__7$main| (_ BitVec 32)) (|l__7$main.next| (_ BitVec 32)) (|__NONDET_INLINE_INIT__8__7$main#0| (_ BitVec 32)) (|.PC.5| Bool) (|.PC.4| Bool)) (=> (state |.PC.0| |.PC.1| |.PC.2| |.PC.3| |.PC.4| |.PC.5| |n$main| |j__3$main| |__RET__$main| |k__5$main| |NONDET| |i__1$main| |l__7$main|) (let ((.def_10 (not .PC.0)))
(let ((.def_238 (and .def_10 .PC.1)))
(let ((.def_15 (not .PC.2)))
(let ((.def_239 (and .def_15 .def_238)))
(let ((.def_18 (not .PC.3)))
(let ((.def_695 (and .def_18 .def_239)))
(let ((.def_21 (not .PC.4)))
(let ((.def_700 (and .def_21 .def_695)))
(let ((.def_701 (and .PC.5 .def_700)))
(let ((.def_704 (not .def_701)))
.def_704)))))))))))))
(check-sat)
